p cnf 86 430
-86 0
-86 -78 0
-86 -69 0
-86 -60 0
-86 -51 0
-86 -43 0
-86 -43 -12 -6 0
-86 -12 0
-85 0
-85 -77 0
-85 -68 0
-85 -59 0
-85 -50 0
-85 -42 0
-85 -42 -11 -5 0
-85 -11 0
-84 0
-84 -76 0
-84 -67 0
-84 -58 0
-84 -49 0
-84 -41 0
-84 -41 -10 -4 0
-84 -10 0
-83 0
-83 -75 0
-83 -66 0
-83 -57 0
-83 -48 0
-83 -40 0
-83 -40 -9 -3 0
-83 -9 0
-82 0
-82 -74 0
-82 -65 0
-82 -56 0
-82 -47 0
-82 -39 0
-82 -39 -8 -2 0
-82 -8 0
-81 0
-81 -73 0
-81 -64 0
-81 -55 0
-81 -46 0
-81 -38 0
-81 -38 -7 -1 0
-81 -7 0
-80 0
-80 -72 0
-80 -63 0
-80 -54 0
-80 -45 0
-80 -43 -37 -6 0
-80 -37 0
-80 -6 0
-79 0
-79 -71 0
-79 -62 0
-79 -53 0
-79 -44 0
-79 -42 -36 -5 0
-79 -36 0
-79 -5 0
-78 0
-78 -70 0
-78 -61 0
-78 -52 0
-78 -41 -35 -4 0
-78 -35 0
-78 -4 0
-77 0
-77 -69 0
-77 -60 0
-77 -51 0
-77 -40 -34 -3 0
-77 -34 0
-77 -3 0
-76 0
-76 -68 0
-76 -59 0
-76 -50 0
-76 -39 -33 -2 0
-76 -33 0
-76 -2 0
-75 0
-75 -67 0
-75 -58 0
-75 -49 0
-75 -38 -32 -1 0
-75 -32 0
-75 -1 0
-74 0
-74 -66 0
-74 -57 0
-74 -48 0
-74 -43 0
-74 -43 -37 -31 0
-74 -31 0
-73 0
-73 -65 0
-73 -56 0
-73 -47 0
-73 -42 0
-73 -42 -36 -30 0
-73 -30 0
-72 0
-72 -64 0
-72 -55 0
-72 -46 0
-72 -41 0
-72 -41 -35 -29 0
-72 -29 0
-71 0
-71 -63 0
-71 -54 0
-71 -45 0
-71 -40 0
-71 -40 -34 -28 0
-71 -28 0
-70 0
-70 -62 0
-70 -53 0
-70 -44 0
-70 -39 0
-70 -39 -33 -27 0
-70 -27 0
-69 0
-69 -61 0
-69 -52 0
-69 -38 0
-69 -38 -32 -26 0
-69 -26 0
-68 0
-68 -60 0
-68 -51 0
-68 -37 0
-68 -37 -31 -25 0
-68 -25 0
-67 0
-67 -59 0
-67 -50 0
-67 -36 0
-67 -36 -30 -24 0
-67 -24 0
-66 0
-66 -58 0
-66 -49 0
-66 -35 0
-66 -35 -29 -23 0
-66 -23 0
-65 0
-65 -57 0
-65 -48 0
-65 -34 0
-65 -34 -28 -22 0
-65 -22 0
-64 0
-64 -56 0
-64 -47 0
-64 -33 0
-64 -33 -27 -21 0
-64 -21 0
-63 0
-63 -55 0
-63 -46 0
-63 -32 0
-63 -32 -26 -20 0
-63 -20 0
-62 0
-62 -54 0
-62 -45 0
-62 -31 0
-62 -31 -25 -19 0
-62 -19 0
-61 0
-61 -53 0
-61 -44 0
-61 -30 0
-61 -30 -24 -18 0
-61 -18 0
-60 0
-60 -52 0
-60 -29 0
-60 -29 -23 -17 0
-60 -17 0
-59 0
-59 -51 0
-59 -28 0
-59 -28 -22 -16 0
-59 -16 0
-58 0
-58 -50 0
-58 -27 0
-58 -27 -21 -15 0
-58 -15 0
-57 0
-57 -49 0
-57 -26 0
-57 -26 -20 -14 0
-57 -14 0
-56 0
-56 -48 0
-56 -25 0
-56 -25 -19 -13 0
-56 -13 0
-55 0
-55 -47 0
-55 -24 0
-55 -24 -18 -12 0
-55 -12 0
-54 0
-54 -46 0
-54 -23 0
-54 -23 -17 -11 0
-54 -11 0
-53 0
-53 -45 0
-53 -22 0
-53 -22 -16 -10 0
-53 -10 0
-52 0
-52 -44 0
-52 -21 0
-52 -21 -15 -9 0
-52 -9 0
-51 0
-51 -20 0
-51 -20 -14 -8 0
-51 -8 0
-50 0
-50 -19 0
-50 -19 -13 -7 0
-50 -7 0
-49 0
-49 -18 0
-49 -18 -12 -6 0
-49 -6 0
-48 0
-48 -17 0
-48 -17 -11 -5 0
-48 -5 0
-47 0
-47 -16 0
-47 -16 -10 -4 0
-47 -4 0
-46 0
-46 -15 0
-46 -15 -9 -3 0
-46 -3 0
-45 0
-45 -14 0
-45 -14 -8 -2 0
-45 -2 0
-44 0
-44 -13 0
-44 -13 -7 -1 0
-44 -1 0
-43 -40 -37 0
-43 -40 -3 0
-43 -6 -3 0
-42 -39 -36 0
-42 -39 -2 0
-42 -5 -2 0
-41 -38 -35 0
-41 -38 -1 0
-41 -4 -1 0
-40 -37 -34 0
-39 -36 -33 0
-38 -35 -32 0
-37 -34 -31 0
-36 -33 -30 0
-35 -32 -29 0
-34 -31 -28 0
-33 -30 -27 0
-32 -29 -26 0
-31 -28 -25 0
-30 -27 -24 0
-29 -26 -23 0
-28 -25 -22 0
-27 -24 -21 0
-26 -23 -20 0
-25 -22 -19 0
-24 -21 -18 0
-23 -20 -17 0
-22 -19 -16 0
-21 -18 -15 0
-20 -17 -14 0
-19 -16 -13 0
-18 -15 -12 0
-17 -14 -11 0
-16 -13 -10 0
-15 -12 -9 0
-14 -11 -8 0
-13 -10 -7 0
-12 -9 -6 0
-11 -8 -5 0
-10 -7 -4 0
-9 -6 -3 0
-8 -5 -2 0
-7 -4 -1 0
1 14 50 0
1 14 82 0
1 20 69 0
1 25 50 0
1 31 69 0
1 31 80 0
2 15 51 0
2 15 83 0
2 21 70 0
2 26 51 0
2 32 70 0
2 32 81 0
3 16 52 0
3 16 84 0
3 22 71 0
3 27 52 0
3 33 71 0
3 33 82 0
4 17 53 0
4 17 85 0
4 23 72 0
4 28 53 0
4 34 72 0
4 34 83 0
5 18 54 0
5 18 86 0
5 24 73 0
5 29 54 0
5 35 73 0
5 35 84 0
6 19 44 0
6 19 55 0
6 25 74 0
6 30 55 0
6 36 74 0
6 36 85 0
7 20 45 0
7 20 56 0
7 26 75 0
7 31 56 0
7 37 75 0
7 37 86 0
8 21 46 0
8 21 57 0
8 27 76 0
8 32 57 0
8 38 44 0
8 38 76 0
9 22 47 0
9 22 58 0
9 28 77 0
9 33 58 0
9 39 45 0
9 39 77 0
10 23 48 0
10 23 59 0
10 29 78 0
10 34 59 0
10 40 46 0
10 40 78 0
11 24 49 0
11 24 60 0
11 30 79 0
11 35 60 0
11 41 47 0
11 41 79 0
12 25 50 0
12 25 61 0
12 31 80 0
12 36 61 0
12 42 48 0
12 42 80 0
13 26 51 0
13 26 62 0
13 32 81 0
13 37 62 0
13 43 49 0
13 43 81 0
14 27 52 0
14 27 63 0
14 33 82 0
14 38 63 0
15 28 53 0
15 28 64 0
15 34 83 0
15 39 64 0
16 29 54 0
16 29 65 0
16 35 84 0
16 40 65 0
17 30 55 0
17 30 66 0
17 36 85 0
17 41 66 0
18 31 56 0
18 31 67 0
18 37 86 0
18 42 67 0
19 32 57 0
19 32 68 0
19 38 44 0
19 43 68 0
20 33 58 0
20 33 69 0
20 39 45 0
21 34 59 0
21 34 70 0
21 40 46 0
22 35 60 0
22 35 71 0
22 41 47 0
23 36 61 0
23 36 72 0
23 42 48 0
24 37 62 0
24 37 73 0
24 43 49 0
25 38 63 0
25 38 74 0
26 39 64 0
26 39 75 0
27 40 65 0
27 40 76 0
28 41 66 0
28 41 77 0
29 42 67 0
29 42 78 0
30 43 68 0
30 43 79 0
